c 
c MolecularSimulation 1.0.2
c Simulation written: Tue Aug 14 15:19:28 2012
c Test: Ogihara-Ray
c Input: ./data/testCNF/SWEEP_R1_K3_N16_M16_S002.cnf
c 
s SATISFIABLE
v -1 -2 -3 -4 -5 -6 -7 -8 -9 -10 -11 12 13 -14 15 16 0
c algorithmType:  Ogihara-Ray
c algorithmTime:  0.821504
c solutionMemory: 6916
c mixCount:       88
c extractCount:   48
c appendCount:    28
c splitCount:     14
c spliceCount:    0
c purifyCount:    30
c numVar:         16
c numClause:      16
c 
